language ESSENCE' 1.0
letting AssignmentMatrix be [[0, 1, 1, 0, 0, 1, 1, 1, 1, 1, 1, 1, 0, 0, 0, 0, 0, 0, 0, 1, 1, 1, 0, 1, 1, 1], 
[1, 0, 0, 1, 1, 0, 1, 1, 1, 1, 1, 1, 0, 0, 0, 0, 0, 0, 0, 1, 1, 0, 0, 1, 1, 0], 
[0, 0, 0, 0, 0, 0, 0, 0, 0, 0, 0, 0, 0, 0, 0, 0, 0, 0, 0, 0, 0, 0, 0, 0, 0, 0], 
[0, 0, 0, 0, 0, 0, 0, 0, 0, 0, 0, 0, 1, 0, 1, 0, 0, 1, 1, 0, 0, 0, 1, 0, 0, 0], 
[0, 0, 0, 0, 0, 0, 0, 0, 0, 0, 0, 0, 0, 1, 0, 1, 1, 0, 0, 0, 0, 1, 0, 0, 0, 1]]
letting OccupancyVector be [1, 1, 1, 1, 1, 1, 1, 1, 1, 1, 1, 1, 1, 1, 1, 1, 1, 1, 1, 1, 1, 1, 1, 1, 1, 1]
letting Price be [210, 210, 210, 210, 210, 210, 350, 350, 350, 350, 350, 350, 350, 350, 350, 350, 350, 366, 366, 379, 379, 5792, 5792, 5792, 5792, 5792]
letting VMType be [341, 341, 341, 341, 341, 341, 316, 316, 316, 316, 316, 316, 316, 316, 316, 316, 316, 331, 331, 345, 345, 5, 5, 5, 5, 5]
